(set-logic AUFLIA)
(declare-sort A$ 0)
(declare-sort A_list$ 0)
(declare-sort A_bool_fun$ 0)
(declare-sort A_list_list$ 0)
(declare-sort A_list_bool_fun$ 0)
(declare-sort A_list_list_list$ 0)
(declare-sort A_list_list_bool_fun$ 0)
(declare-sort A_a_list_bool_fun_fun$ 0)
(declare-sort A_list_list_list_list$ 0)
(declare-sort A_list_list_list_bool_fun$ 0)
(declare-sort A_list_a_list_bool_fun_fun$ 0)
(declare-sort A_list_a_list_list_bool_fun_fun$ 0)
(declare-sort A_list_list_a_list_list_bool_fun_fun$ 0)
(declare-sort A_list_a_list_a_list_bool_fun_fun_fun$ 0)
(declare-sort A_list_list_a_list_list_list_bool_fun_fun$ 0)
(declare-sort A_list_list_list_a_list_list_list_bool_fun_fun$ 0)
(declare-sort A_list_list_a_list_list_a_list_list_bool_fun_fun_fun$ 0)
(declare-sort A_list_list_list_a_list_list_list_a_list_list_list_bool_fun_fun_fun$ 0)
(declare-fun p$ () A_a_list_bool_fun_fun$)
(declare-fun q$ () A_bool_fun$)
(declare-fun x$ () A$)
(declare-fun y$ () A$)
(declare-fun z$ () A$)
(declare-fun ys$ () A_list$)
(declare-fun zs$ () A_list$)
(declare-fun nil$ () A_list_list_list$)
(declare-fun xsa$ () A_list$)
(declare-fun ysa$ () A_list$)
(declare-fun zsa$ () A_list$)
(declare-fun cons$ (A$ A_list$) A_list$)
(declare-fun nil$a () A_list_list$)
(declare-fun nil$b () A_list$)
(declare-fun nil$c () A_list_list_list_list$)
(declare-fun cons$a (A_list_list$ A_list_list_list$) A_list_list_list$)
(declare-fun cons$b (A_list$ A_list_list$) A_list_list$)
(declare-fun cons$c (A_list_list_list$ A_list_list_list_list$) A_list_list_list_list$)
(declare-fun filter$ (A_bool_fun$ A_list$) A_list$)
(declare-fun filter$a (A_list_list_bool_fun$ A_list_list_list$) A_list_list_list$)
(declare-fun filter$b (A_list_bool_fun$ A_list_list$) A_list_list$)
(declare-fun fun_app$ (A_list_bool_fun$ A_list$) Bool)
(declare-fun fun_app$a (A_list_a_list_bool_fun_fun$ A_list$) A_list_bool_fun$)
(declare-fun fun_app$b (A_list_a_list_a_list_bool_fun_fun_fun$ A_list$) A_list_a_list_bool_fun_fun$)
(declare-fun fun_app$c (A_a_list_bool_fun_fun$ A$) A_list_bool_fun$)
(declare-fun fun_app$d (A_list_list_list_bool_fun$ A_list_list_list$) Bool)
(declare-fun fun_app$e (A_list_list_list_a_list_list_list_bool_fun_fun$ A_list_list_list$) A_list_list_list_bool_fun$)
(declare-fun fun_app$f (A_list_list_list_a_list_list_list_a_list_list_list_bool_fun_fun_fun$ A_list_list_list$) A_list_list_list_a_list_list_list_bool_fun_fun$)
(declare-fun fun_app$g (A_list_list_a_list_list_list_bool_fun_fun$ A_list_list$) A_list_list_list_bool_fun$)
(declare-fun fun_app$h (A_list_list_bool_fun$ A_list_list$) Bool)
(declare-fun fun_app$i (A_list_list_a_list_list_bool_fun_fun$ A_list_list$) A_list_list_bool_fun$)
(declare-fun fun_app$j (A_list_list_a_list_list_a_list_list_bool_fun_fun_fun$ A_list_list$) A_list_list_a_list_list_bool_fun_fun$)
(declare-fun fun_app$k (A_list_a_list_list_bool_fun_fun$ A_list$) A_list_list_bool_fun$)
(declare-fun fun_app$l (A_bool_fun$ A$) Bool)
(declare-fun interleaves$ (A_a_list_bool_fun_fun$) A_list_a_list_a_list_bool_fun_fun_fun$)
(declare-fun interleaves$a (A_list_list_a_list_list_list_bool_fun_fun$) A_list_list_list_a_list_list_list_a_list_list_list_bool_fun_fun_fun$)
(declare-fun interleaves$b (A_list_a_list_list_bool_fun_fun$) A_list_list_a_list_list_a_list_list_bool_fun_fun_fun$)
(declare-fun interleaves$c (A_list_a_list_list_bool_fun_fun$) A_list_list_a_list_list_a_list_list_bool_fun_fun_fun$)
(declare-fun interleaves$d (A_a_list_bool_fun_fun$) A_list_a_list_a_list_bool_fun_fun_fun$)
(declare-fun interleaves$e (A_list_list_a_list_list_list_bool_fun_fun$) A_list_list_list_a_list_list_list_a_list_list_list_bool_fun_fun_fun$)
(assert false)
(check-sat)
(exit)
